************************************************************************
file with basedata            : mm32_.bas
initial value random generator: 421287394
************************************************************************
projects                      :  1
jobs (incl. supersource/sink ):  12
horizon                       :  71
RESOURCES
  - renewable                 :  2   R
  - nonrenewable              :  2   N
  - doubly constrained        :  0   D
************************************************************************
PROJECT INFORMATION:
pronr.  #jobs rel.date duedate tardcost  MPM-Time
    1     10      0       11        0       11
************************************************************************
PRECEDENCE RELATIONS:
jobnr.    #modes  #successors   successors
   1        1          3           2   3   4
   2        3          1           5
   3        3          1           8
   4        3          2           7  10
   5        3          3           6   8   9
   6        3          2          10  11
   7        3          2           9  11
   8        3          1          11
   9        3          1          12
  10        3          1          12
  11        3          1          12
  12        1          0        
************************************************************************
REQUESTS/DURATIONS:
jobnr. mode duration  R 1  R 2  N 1  N 2
------------------------------------------------------------------------
  1      1     0       0    0    0    0
  2      1     4       9    0    4    8
         2     5       0    7    3    5
         3     6       0    4    3    4
  3      1     2       0    7    4    8
         2     4       0    7    2    6
         3     8       7    0    1    5
  4      1     1       9    0    7    6
         2     1       0    3   10    6
         3     9       0    2    4    6
  5      1     1       0    6    7   10
         2     3       3    0    7    6
         3     3       0    3    6    7
  6      1     2       0    7    6    2
         2     2       5    0    5    2
         3     6       3    0    5    2
  7      1     3       6    0    7   10
         2     6       6    0    6    9
         3    10       0    3    6    6
  8      1     3       0    6    9    8
         2     8       3    0    4    6
         3     9       0    6    3    5
  9      1     5       9    0    4    7
         2     7       4    0    4    6
         3     8       4    0    2    5
 10      1     4       9    0    8    7
         2     6       8    0    7    6
         3     6       0    7    8    6
 11      1     3       8    0    6    9
         2     5       8    0    6    8
         3     6       0    2    5    6
 12      1     0       0    0    0    0
************************************************************************
RESOURCEAVAILABILITIES:
  R 1  R 2  N 1  N 2
   25   17   65   75
************************************************************************
MAXIMAL LAGS:
from  to  type  delay
    1   12   ES      0
    1    2   ES      0
    2   12   ES      0
    1    3   ES      0
    3   12   ES      0
    1    4   ES      0
    4   12   ES      0
    1    5   ES      0
    5   12   ES      0
    1    6   ES      0
    6   12   ES      0
    1    7   ES      0
    7   12   ES      0
    1    8   ES      0
    8   12   ES      0
    1    9   ES      0
    9   12   ES      0
    1   10   ES      0
   10   12   ES      0
    1   11   ES      0
   11   12   ES      0
    1   12   ES      0
    2    5   SS    -10
    2    5   SE      6
    2    5   ES      4
    2    5   EE      3
    3    8   SS      1
    3    8   SE     -6
    3    8   ES     -1
    3    8   EE    -10
    4    7   SS      8
    4    7   SE     -3
    4    7   ES      4
    4    7   EE     -3
    4   10   SS      1
    4   10   SE      9
    4   10   ES      5
    4   10   EE     -2
    5    6   SS     -6
    5    6   SE      1
    6    5   SE      0
    5    6   ES      0
    5    6   EE     -4
    5    8   SS      7
    5    8   SE      4
    5    8   ES      2
    5    8   EE      9
    5    9   SS     12
    5    9   SE      5
    5    9   ES     -7
    5    9   EE    -12
    6   10   SS      8
    6   10   SE     10
    6   10   ES      4
    6   10   EE     -7
    6   11   SS      6
    6   11   SE      3
    6   11   ES     -6
    6   11   EE      9
    7    9   SS     11
    7    9   SE      2
    7    9   ES     -4
    7    9   EE      8
    7   11   SS      5
    7   11   SE      7
    7   11   ES     12
    7   11   EE      1
    8   11   SS      6
    8   11   SE     11
    8   11   ES      8
    8   11   EE    -11
************************************************************************
